projected/problems_b25_r0_d7_m100_s666/_DIMACS/b25_d7_r0_s666_008.cnf
p cnf 309 615 25
c p show 1 2 3 4 5 6 7 8 9 10 11 12 13 14 15 16 17 18 19 20 21 22 23 24 25
-199 -12 0
-199 7 0
-200 -13 0
-200 -22 0
-201 200 0
-201 199 0
-202 1 0
-202 18 0
-203 -9 20 0
-204 203 0
-204 202 0
-205 204 0
-205 201 0
-206 4 0
-206 -7 0
-207 21 3 0
-208 207 0
-208 206 0
-209 -19 0
-209 -13 0
-210 23 -18 0
-211 210 0
-211 209 0
-212 211 0
-212 208 0
-213 212 0
-213 205 0
-214 -7 0
-214 -11 0
-215 12 0
-215 -6 0
-216 215 214 0
-217 -25 0
-217 24 0
-218 -16 0
-218 -4 0
-219 218 0
-219 217 0
-220 16 4 0
-221 25 -24 0
-222 221 0
-222 220 0
-223 222 219 0
-224 223 216 0
-225 22 0
-225 -22 0
-226 5 20 0
-227 226 0
-227 225 0
-228 8 0
-229 -12 0
-230 229 0
-230 228 0
-231 230 0
-231 227 0
-232 231 224 0
-233 232 0
-233 213 0
-234 11 0
-234 -8 0
-235 -22 24 0
-236 235 0
-236 234 0
-237 -10 0
-237 10 0
-238 17 14 0
-239 238 0
-239 237 0
-240 -17 0
-240 -14 0
-241 10 -10 0
-242 241 0
-242 240 0
-243 242 239 0
-244 243 236 0
-245 -22 0
-245 21 0
-246 21 0
-246 -19 0
-247 246 245 0
-248 24 -2 0
-249 24 0
-249 12 0
-250 249 0
-250 248 0
-251 250 247 0
-252 251 0
-252 244 0
-253 -25 0
-253 -18 0
-254 16 25 0
-255 254 253 0
-256 -15 0
-256 8 0
-257 -6 0
-257 3 0
-258 257 256 0
-259 258 0
-259 255 0
-260 -12 -3 0
-261 -13 -17 0
-262 261 0
-262 260 0
-263 16 7 0
-264 2 0
-264 -16 0
-265 264 263 0
-266 265 0
-266 262 0
-267 266 0
-267 259 0
-268 267 252 0
-269 268 0
-269 233 0
-270 -11 8 0
-271 22 0
-271 -24 0
-272 271 270 0
-273 240 241 0
-274 237 238 0
-275 274 0
-275 273 0
-276 275 0
-276 272 0
-277 22 -21 0
-278 -21 19 0
-279 278 0
-279 277 0
-280 -24 0
-280 2 0
-281 -24 -12 0
-282 281 280 0
-283 282 0
-283 279 0
-284 283 276 0
-285 25 18 0
-286 -16 0
-286 -25 0
-287 286 0
-287 285 0
-288 15 -8 0
-289 6 -3 0
-290 289 0
-290 288 0
-291 290 287 0
-292 12 0
-292 3 0
-293 13 0
-293 17 0
-294 293 292 0
-295 -16 0
-295 -7 0
-296 -2 16 0
-297 296 0
-297 295 0
-298 297 294 0
-299 298 291 0
-300 299 0
-300 284 0
-301 12 -7 0
-302 13 22 0
-303 302 301 0
-304 -1 -18 0
-305 9 0
-305 -20 0
-306 305 304 0
-307 306 303 0
-308 -4 7 0
-309 -21 0
-309 -3 0
-26 309 308 0
-27 19 13 0
-157 -23 0
-157 18 0
-163 157 27 0
-169 163 26 0
-175 169 307 0
-181 7 11 0
-187 -12 6 0
-193 187 0
-193 181 0
-198 220 221 0
-28 217 218 0
-29 28 0
-29 198 0
-30 29 0
-30 193 0
-31 -22 22 0
-32 -5 0
-32 -20 0
-33 32 31 0
-34 -8 0
-35 12 0
-36 35 34 0
-37 36 33 0
-38 37 0
-38 30 0
-39 38 175 0
-40 39 0
-40 300 0
-41 40 269 0
-42 10 -19 0
-43 -3 0
-43 2 0
-44 43 0
-44 42 0
-45 16 -3 0
-46 -8 0
-46 21 0
-47 46 0
-47 45 0
-48 47 44 0
-49 18 10 0
-50 -10 0
-50 -25 0
-51 50 49 0
-52 -11 0
-52 21 0
-53 -1 -25 0
-54 53 0
-54 52 0
-55 54 51 0
-56 55 0
-56 48 0
-57 13 -2 0
-58 -9 21 0
-59 -21 9 0
-60 59 0
-60 58 0
-61 60 57 0
-62 -3 0
-62 3 0
-63 25 0
-63 -5 0
-64 63 0
-64 62 0
-65 64 61 0
-66 20 -20 0
-67 -24 0
-67 -7 0
-68 67 66 0
-69 -9 -17 0
-70 13 2 0
-71 70 69 0
-72 71 68 0
-73 72 0
-73 65 0
-74 73 56 0
-75 -15 0
-75 1 0
-76 10 -8 0
-77 76 75 0
-78 -10 0
-78 8 0
-79 15 -1 0
-80 79 78 0
-81 80 0
-81 77 0
-82 1 24 0
-83 82 0
-83 288 0
-84 -1 0
-84 -24 0
-85 256 0
-85 84 0
-86 85 83 0
-87 86 81 0
-88 84 256 0
-89 288 82 0
-90 89 0
-90 88 0
-91 78 0
-91 79 0
-92 75 0
-92 76 0
-93 92 91 0
-94 93 90 0
-95 94 0
-95 87 0
-96 11 0
-96 10 0
-97 24 0
-97 -21 0
-98 97 96 0
-99 -24 21 0
-100 -11 -10 0
-101 100 99 0
-102 101 0
-102 98 0
-103 -1 25 0
-104 -10 -25 0
-105 104 0
-105 103 0
-106 105 102 0
-107 106 95 0
-108 14 0
-108 8 0
-109 -25 0
-109 15 0
-110 109 108 0
-111 -13 16 0
-112 -22 0
-112 -25 0
-113 112 111 0
-114 113 0
-114 110 0
-115 -13 9 0
-116 -9 13 0
-117 116 0
-117 115 0
-118 22 0
-118 -17 0
-119 118 0
-119 117 0
-120 -24 0
-120 21 0
-121 -18 13 0
-122 121 120 0
-123 122 0
-123 119 0
-124 123 114 0
-125 124 0
-125 107 0
-126 125 0
-126 74 0
-127 90 0
-127 93 0
-128 81 0
-128 86 0
-129 128 127 0
-130 99 0
-130 100 0
-131 96 0
-131 97 0
-132 131 130 0
-133 1 0
-133 -25 0
-134 10 0
-134 25 0
-135 134 133 0
-136 135 0
-136 132 0
-137 136 0
-137 129 0
-138 -14 -8 0
-139 25 -15 0
-140 139 0
-140 138 0
-141 13 0
-141 -16 0
-142 22 25 0
-143 142 0
-143 141 0
-144 143 140 0
-145 13 0
-145 -9 0
-146 9 0
-146 -13 0
-147 146 145 0
-148 -22 17 0
-149 148 147 0
-150 24 -21 0
-151 18 0
-151 -13 0
-152 151 0
-152 150 0
-153 152 149 0
-154 153 0
-154 144 0
-155 154 137 0
-156 -10 0
-156 19 0
-158 3 -2 0
-159 158 156 0
-160 -16 0
-160 3 0
-161 8 -21 0
-162 161 160 0
-164 162 0
-164 159 0
-165 -18 0
-165 -10 0
-166 10 25 0
-167 166 0
-167 165 0
-168 11 -21 0
-170 1 0
-170 25 0
-171 170 168 0
-172 171 0
-172 167 0
-173 172 164 0
-174 -13 0
-174 2 0
-176 9 0
-176 -21 0
-177 21 0
-177 -9 0
-178 177 176 0
-179 178 0
-179 174 0
-180 3 -3 0
-182 -25 5 0
-183 182 180 0
-184 183 0
-184 179 0
-185 -20 0
-185 20 0
-186 24 7 0
-188 186 0
-188 185 0
-189 9 0
-189 17 0
-190 -13 0
-190 -2 0
-191 190 0
-191 189 0
-192 191 0
-192 188 0
-194 192 184 0
-195 194 0
-195 173 0
-196 195 0
-196 155 0
-197 196 126 0
197 41 0
-270 -234 0
-234 -270 0
-235 -271 0
-236 -272 0
-272 -236 0
-240 -238 0
-238 -240 0
-241 -237 0
-275 -243 0
-276 -244 0
-245 -277 0
-278 -246 0
-246 -278 0
-247 -279 0
-279 -247 0
-248 -280 0
-280 -248 0
-281 -249 0
-282 -250 0
-283 -251 0
-284 -252 0
-252 -284 0
-285 -253 0
-253 -285 0
-254 -286 0
-255 -287 0
-287 -255 0
-288 -256 0
-257 -289 0
-289 -257 0
-290 -258 0
-291 -259 0
-259 -291 0
-292 -260 0
-261 -293 0
-293 -261 0
-294 -262 0
-295 -263 0
-263 -295 0
-264 -296 0
-265 -297 0
-297 -265 0
-298 -266 0
-266 -298 0
-267 -299 0
-268 -300 0
-301 -199 0
-199 -301 0
-200 -302 0
-201 -303 0
-304 -202 0
-305 -203 0
-306 -204 0
-204 -306 0
-205 -307 0
-206 -308 0
-309 -207 0
-207 -309 0
-208 -26 0
-26 -208 0
-27 -209 0
-157 -210 0
-163 -211 0
-169 -212 0
-212 -169 0
-213 -175 0
-175 -213 0
-181 -214 0
-215 -187 0
-187 -215 0
-193 -216 0
-220 -218 0
-218 -220 0
-217 -221 0
-221 -217 0
-29 -223 0
-30 -224 0
-224 -30 0
-31 -225 0
-225 -31 0
-32 -226 0
-226 -32 0
-227 -33 0
-228 -34 0
-229 -35 0
-230 -36 0
-231 -37 0
-232 -38 0
-38 -232 0
-39 -233 0
-84 -82 0
-82 -84 0
-256 -288 0
-90 -86 0
-78 -76 0
-75 -79 0
-81 -93 0
-95 -129 0
-99 -97 0
-96 -100 0
-102 -132 0
-132 -102 0
-103 -133 0
-134 -104 0
-104 -134 0
-105 -135 0
-135 -105 0
-136 -106 0
-106 -136 0
-107 -137 0
-137 -107 0
-108 -138 0
-138 -108 0
-109 -139 0
-139 -109 0
-140 -110 0
-110 -140 0
-141 -111 0
-112 -142 0
-142 -112 0
-143 -113 0
-113 -143 0
-114 -144 0
-117 -147 0
-148 -118 0
-118 -148 0
-119 -149 0
-149 -119 0
-120 -150 0
-150 -120 0
-121 -151 0
-151 -121 0
-152 -122 0
-153 -123 0
-123 -153 0
-124 -154 0
-154 -124 0
-155 -125 0
-125 -155 0
-42 -156 0
-156 -42 0
-43 -158 0
-158 -43 0
-159 -44 0
-160 -45 0
-45 -160 0
-161 -46 0
-46 -161 0
-47 -162 0
-162 -47 0
-164 -48 0
-49 -165 0
-50 -166 0
-51 -167 0
-167 -51 0
-52 -168 0
-168 -52 0
-170 -53 0
-171 -54 0
-172 -55 0
-173 -56 0
-174 -57 0
-57 -174 0
-60 -178 0
-61 -179 0
-179 -61 0
-180 -62 0
-62 -180 0
-63 -182 0
-64 -183 0
-183 -64 0
-184 -65 0
-65 -184 0
-66 -185 0
-185 -66 0
-67 -186 0
-186 -67 0
-188 -68 0
-189 -69 0
-69 -189 0
-190 -70 0
-70 -190 0
-71 -191 0
-191 -71 0
-192 -72 0
-72 -192 0
-73 -194 0
-194 -73 0
-195 -74 0
