projected/problems_b25_r0_d7_m100_s666/b25_d7_r0_s666_008.smt2
(set-logic QF_UF)
(declare-fun A0 () Bool)
(declare-fun A1 () Bool)
(declare-fun A2 () Bool)
(declare-fun A3 () Bool)
(declare-fun A4 () Bool)
(declare-fun A5 () Bool)
(declare-fun A6 () Bool)
(declare-fun A7 () Bool)
(declare-fun A8 () Bool)
(declare-fun A9 () Bool)
(declare-fun A10 () Bool)
(declare-fun A11 () Bool)
(declare-fun A12 () Bool)
(declare-fun A13 () Bool)
(declare-fun A14 () Bool)
(declare-fun A15 () Bool)
(declare-fun A16 () Bool)
(declare-fun A17 () Bool)
(declare-fun A18 () Bool)
(declare-fun A19 () Bool)
(declare-fun A20 () Bool)
(declare-fun A21 () Bool)
(declare-fun A22 () Bool)
(declare-fun A23 () Bool)
(declare-fun A24 () Bool)
(assert (let ((.def_0 (not A10))) (let ((.def_1 (or .def_0 A7))) (let ((.def_2 (not .def_1))) (let ((.def_3 (not A21))) (let ((.def_4 (or .def_3 A23))) (let ((.def_5 (and .def_4 .def_2))) (let ((.def_6 (not .def_5))) (let ((.def_7 (not A13))) (let ((.def_8 (not A16))) (let ((.def_9 (and .def_8 .def_7))) (let ((.def_10 (not .def_9))) (let ((.def_11 (not A9))) (let ((.def_12 (or A9 .def_11))) (let ((.def_13 (= .def_12 .def_10))) (let ((.def_14 (and .def_13 .def_6))) (let ((.def_15 (and .def_3 A20))) (let ((.def_16 (not A20))) (let ((.def_17 (or .def_16 A18))) (let ((.def_18 (not .def_17))) (let ((.def_19 (or .def_18 .def_15))) (let ((.def_20 (not .def_19))) (let ((.def_21 (not A1))) (let ((.def_22 (or A23 .def_21))) (let ((.def_23 (not .def_22))) (let ((.def_24 (not A11))) (let ((.def_25 (not A23))) (let ((.def_26 (or .def_25 .def_24))) (let ((.def_27 (or .def_26 .def_23))) (let ((.def_28 (and .def_27 .def_20))) (let ((.def_29 (or .def_28 .def_14))) (let ((.def_30 (not .def_29))) (let ((.def_31 (or A24 A17))) (let ((.def_32 (not .def_31))) (let ((.def_33 (or A15 A24))) (let ((.def_34 (or .def_33 .def_32))) (let ((.def_35 (not .def_34))) (let ((.def_36 (not A7))) (let ((.def_37 (or A14 .def_36))) (let ((.def_38 (not A5))) (let ((.def_39 (and .def_38 A2))) (let ((.def_40 (not .def_39))) (let ((.def_41 (and .def_40 .def_37))) (let ((.def_42 (or .def_41 .def_35))) (let ((.def_43 (not .def_42))) (let ((.def_44 (and A11 A2))) (let ((.def_45 (not A12))) (let ((.def_46 (or .def_45 .def_8))) (let ((.def_47 (not .def_46))) (let ((.def_48 (or .def_47 .def_44))) (let ((.def_49 (not A6))) (let ((.def_50 (not A15))) (let ((.def_51 (and .def_50 .def_49))) (let ((.def_52 (not .def_51))) (let ((.def_53 (and A1 .def_50))) (let ((.def_54 (or .def_53 .def_52))) (let ((.def_55 (not .def_54))) (let ((.def_56 (or .def_55 .def_48))) (let ((.def_57 (not .def_56))) (let ((.def_58 (and .def_57 .def_43))) (let ((.def_59 (or .def_58 .def_30))) (let ((.def_60 (or A11 .def_49))) (let ((.def_61 (not .def_60))) (let ((.def_62 (and .def_45 .def_3))) (let ((.def_63 (and .def_62 .def_61))) (let ((.def_64 (not A17))) (let ((.def_65 (not A0))) (let ((.def_66 (or .def_65 .def_64))) (let ((.def_67 (not A19))) (let ((.def_68 (and A8 .def_67))) (let ((.def_69 (or .def_68 .def_66))) (let ((.def_70 (not .def_69))) (let ((.def_71 (and .def_70 .def_63))) (let ((.def_72 (and A3 .def_49))) (let ((.def_73 (not A2))) (let ((.def_74 (and .def_16 .def_73))) (let ((.def_75 (not .def_74))) (let ((.def_76 (and .def_75 .def_72))) (let ((.def_77 (not .def_76))) (let ((.def_78 (or A18 A12))) (let ((.def_79 (not A22))) (let ((.def_80 (and .def_79 A17))) (let ((.def_81 (or .def_80 .def_78))) (let ((.def_82 (or .def_81 .def_77))) (let ((.def_83 (not .def_82))) (let ((.def_84 (and .def_83 .def_71))) (let ((.def_85 (not .def_84))) (let ((.def_86 (or A6 A10))) (let ((.def_87 (and A11 .def_38))) (let ((.def_88 (not .def_87))) (let ((.def_89 (and .def_88 .def_86))) (let ((.def_90 (or A15 A3))) (let ((.def_91 (not .def_90))) (let ((.def_92 (not A24))) (let ((.def_93 (and .def_92 A23))) (let ((.def_94 (not .def_93))) (let ((.def_95 (= .def_94 .def_91))) (let ((.def_96 (and .def_95 .def_89))) (let ((.def_97 (not .def_96))) (let ((.def_98 (or .def_3 A21))) (let ((.def_99 (not .def_98))) (let ((.def_100 (not A4))) (let ((.def_101 (and .def_100 .def_67))) (let ((.def_102 (not .def_101))) (let ((.def_103 (and .def_102 .def_99))) (let ((.def_104 (or A7 A7))) (let ((.def_105 (and .def_24 .def_24))) (let ((.def_106 (and .def_105 .def_104))) (let ((.def_107 (and .def_106 .def_103))) (let ((.def_108 (or .def_107 .def_97))) (let ((.def_109 (not .def_108))) (let ((.def_110 (or .def_109 .def_85))) (let ((.def_111 (= .def_110 .def_59))) (let ((.def_112 (not .def_111))) (let ((.def_113 (and .def_65 .def_25))) (let ((.def_114 (not .def_113))) (let ((.def_115 (not A14))) (let ((.def_116 (and .def_115 A7))) (let ((.def_117 (= .def_116 .def_114))) (let ((.def_118 (and .def_11 A7))) (let ((.def_119 (and .def_115 A0))) (let ((.def_120 (= .def_119 .def_118))) (let ((.def_121 (= .def_120 .def_117))) (let ((.def_122 (or .def_25 A20))) (let ((.def_123 (and A10 A9))) (let ((.def_124 (= .def_123 .def_122))) (let ((.def_125 (not .def_124))) (let ((.def_126 (or .def_65 A24))) (let ((.def_127 (and A9 A24))) (let ((.def_128 (not .def_127))) (let ((.def_129 (and .def_128 .def_126))) (let ((.def_130 (not .def_129))) (let ((.def_131 (and .def_130 .def_125))) (let ((.def_132 (not .def_131))) (let ((.def_133 (or .def_132 .def_121))) (let ((.def_134 (not .def_133))) (let ((.def_135 (and A13 A7))) (let ((.def_136 (not .def_135))) (let ((.def_137 (and .def_92 A14))) (let ((.def_138 (not .def_137))) (let ((.def_139 (and .def_138 .def_136))) (let ((.def_140 (not .def_139))) (let ((.def_141 (and A12 .def_50))) (let ((.def_142 (and .def_3 .def_92))) (let ((.def_143 (not .def_142))) (let ((.def_144 (and .def_143 .def_141))) (let ((.def_145 (not .def_144))) (let ((.def_146 (and .def_145 .def_140))) (let ((.def_147 (= A8 A12))) (let ((.def_148 (or .def_3 A16))) (let ((.def_149 (not .def_148))) (let ((.def_150 (and .def_149 .def_147))) (let ((.def_151 (not .def_150))) (let ((.def_152 (and .def_25 A20))) (let ((.def_153 (not .def_152))) (let ((.def_154 (or .def_64 A12))) (let ((.def_155 (not .def_154))) (let ((.def_156 (and .def_155 .def_153))) (let ((.def_157 (or .def_156 .def_151))) (let ((.def_158 (not .def_157))) (let ((.def_159 (or .def_158 .def_146))) (let ((.def_160 (not .def_159))) (let ((.def_161 (or .def_160 .def_134))) (let ((.def_162 (not .def_161))) (let ((.def_163 (not A18))) (let ((.def_164 (or A9 .def_163))) (let ((.def_165 (not .def_164))) (let ((.def_166 (and .def_73 A1))) (let ((.def_167 (not .def_166))) (let ((.def_168 (or .def_167 .def_165))) (let ((.def_169 (and .def_50 A2))) (let ((.def_170 (not .def_169))) (let ((.def_171 (or A7 .def_16))) (let ((.def_172 (not .def_171))) (let ((.def_173 (and .def_172 .def_170))) (let ((.def_174 (not .def_173))) (let ((.def_175 (and .def_174 .def_168))) (let ((.def_176 (or A17 A9))) (let ((.def_177 (and .def_11 .def_92))) (let ((.def_178 (or .def_177 .def_176))) (let ((.def_179 (not .def_178))) (let ((.def_180 (and .def_0 A20))) (let ((.def_181 (not .def_180))) (let ((.def_182 (and A0 A24))) (let ((.def_183 (or .def_182 .def_181))) (let ((.def_184 (and .def_183 .def_179))) (let ((.def_185 (or .def_184 .def_175))) (let ((.def_186 (and .def_45 A1))) (let ((.def_187 (not .def_186))) (let ((.def_188 (= A20 A8))) (let ((.def_189 (or .def_188 .def_187))) (let ((.def_190 (not .def_189))) (let ((.def_191 (or A2 .def_73))) (let ((.def_192 (not .def_191))) (let ((.def_193 (and A24 .def_100))) (let ((.def_194 (and .def_193 .def_192))) (let ((.def_195 (not .def_194))) (let ((.def_196 (and .def_195 .def_190))) (let ((.def_197 (not .def_196))) (let ((.def_198 (or A19 .def_67))) (let ((.def_199 (not .def_198))) (let ((.def_200 (and .def_25 .def_49))) (let ((.def_201 (not .def_200))) (let ((.def_202 (and .def_201 .def_199))) (let ((.def_203 (and A8 A16))) (let ((.def_204 (not .def_203))) (let ((.def_205 (and .def_45 .def_21))) (let ((.def_206 (not .def_205))) (let ((.def_207 (or .def_206 .def_204))) (let ((.def_208 (not .def_207))) (let ((.def_209 (and .def_208 .def_202))) (let ((.def_210 (not .def_209))) (let ((.def_211 (and .def_210 .def_197))) (let ((.def_212 (not .def_211))) (let ((.def_213 (and .def_212 .def_185))) (let ((.def_214 (= .def_213 .def_162))) (let ((.def_215 (not .def_214))) (let ((.def_216 (or .def_215 .def_112))) .def_216))))))))))))))))))))))))))))))))))))))))))))))))))))))))))))))))))))))))))))))))))))))))))))))))))))))))))))))))))))))))))))))))))))))))))))))))))))))))))))))))))))))))))))))))))))))))))))))))))))))))))))))))))))))))))
(check-sat)
